
  15    0


   0   8 2 4 5 10 11 12 13 14 
   7   3 9 8 3 
   3   1 6 
   5   1 7 
   2   1 6 
   3   1 15
   1   1 15
   7   1 15
   1   1 15
   2   1 15
   9   1 15
   3   1 15
   2   1 15
   6   1 15
   0   0 
